objective value:                                  -13
t_n_2                                               1 	(obj:-1)
t_n_224                                             1 	(obj:-1)
t_n_451                                             1 	(obj:-1)
t_n_458                                             1 	(obj:-1)
t_n_506                                             1 	(obj:-1)
t_n_564                                             1 	(obj:-1)
t_n_601                                             1 	(obj:-1)
t_n_647                                             1 	(obj:-1)
t_n_654                                             1 	(obj:-1)
t_n_673                                             1 	(obj:-1)
t_n_676                                             1 	(obj:-1)
t_n_791                                             1 	(obj:-1)
t_n_886                                             1 	(obj:-1)
